num_teams = 18;
num_weeks = 17;
num_periods = 9;

week = [|
0, 9, 1, 10, 2, 11, 3, 12, 4, 13, 5, 14, 6, 15, 7, 16, 8, 17 |
9, 0, 10, 2, 11, 3, 12, 4, 13, 5, 14, 6, 15, 7, 16, 8, 17, 1 |
1, 10, 0, 11, 3, 12, 4, 13, 5, 14, 6, 15, 7, 16, 8, 17, 9, 2 |
10, 2, 11, 0, 12, 4, 13, 5, 14, 6, 15, 7, 16, 8, 17, 9, 1, 3 |
2, 11, 3, 12, 0, 13, 5, 14, 6, 15, 7, 16, 8, 17, 9, 1, 10, 4 |
11, 3, 12, 4, 13, 0, 14, 6, 15, 7, 16, 8, 17, 9, 1, 10, 2, 5 |
3, 12, 4, 13, 5, 14, 0, 15, 7, 16, 8, 17, 9, 1, 10, 2, 11, 6 |
12, 4, 13, 5, 14, 6, 15, 0, 16, 8, 17, 9, 1, 10, 2, 11, 3, 7 |
4, 13, 5, 14, 6, 15, 7, 16, 0, 17, 9, 1, 10, 2, 11, 3, 12, 8 |
13, 5, 14, 6, 15, 7, 16, 8, 17, 0, 1, 10, 2, 11, 3, 12, 4, 9 |
5, 14, 6, 15, 7, 16, 8, 17, 9, 1, 0, 2, 11, 3, 12, 4, 13, 10 |
14, 6, 15, 7, 16, 8, 17, 9, 1, 10, 2, 0, 3, 12, 4, 13, 5, 11 |
6, 15, 7, 16, 8, 17, 9, 1, 10, 2, 11, 3, 0, 4, 13, 5, 14, 12 |
15, 7, 16, 8, 17, 9, 1, 10, 2, 11, 3, 12, 4, 0, 5, 14, 6, 13 |
7, 16, 8, 17, 9, 1, 10, 2, 11, 3, 12, 4, 13, 5, 0, 6, 15, 14 |
16, 8, 17, 9, 1, 10, 2, 11, 3, 12, 4, 13, 5, 14, 6, 0, 7, 15 |
8, 17, 9, 1, 10, 2, 11, 3, 12, 4, 13, 5, 14, 6, 15, 7, 0, 16 |
17, 1, 2, 3, 4, 5, 6, 7, 8, 9, 10, 11, 12, 13, 14, 15, 16, 0 |];
